
;this file is automatically generated: Thu Jan 02 16:54:47 GMT 2020

;declarations generated

(declare-fun oclExcludes ( Int Int) Bool)
(declare-fun Cardinality ( Int) Int)
(declare-fun obj_ed1d8ee6_b6e5_41d4_8419_285136b23dd4 ( Int) Int)
(declare-fun oclSelect ( Int Bool) Int)
(declare-fun Enum0 ( Int) Int)
(declare-fun Enum1 ( Int) Int)
(declare-fun Enum2 ( Int) Int)
(declare-fun container_ ( Int) Int)
(declare-fun type_b06a369b_3a09_4db9_b716_f55e6aa1eca0_Class25 ( Int) Bool)
(declare-fun class25_Class25BoolAttr1 ( Int) Bool)
(declare-fun oclIncludes ( Int Int) Bool)
(declare-fun type_b06a369b_3a09_4db9_b716_f55e6aa1eca0_Class2 ( Int) Bool)
(declare-fun ObjAt ( Int Int) Int)

;formula(s) generated
(assert (! (forall ((v Int)) (=> (and ( type_b06a369b_3a09_4db9_b716_f55e6aa1eca0_Class25 v )  ( type_b06a369b_3a09_4db9_b716_f55e6aa1eca0_Class2 v ) ) ( class25_Class25BoolAttr1 ( obj_ed1d8ee6_b6e5_41d4_8419_285136b23dd4 v )  ) )):named l0))
(assert (exists ((o Int)) (and ( type_b06a369b_3a09_4db9_b716_f55e6aa1eca0_Class25 ( obj_ed1d8ee6_b6e5_41d4_8419_285136b23dd4 o )  )  ( type_b06a369b_3a09_4db9_b716_f55e6aa1eca0_Class2 ( obj_ed1d8ee6_b6e5_41d4_8419_285136b23dd4 o )  ) )))

 ;end of formula 